(set-logic BV) (define-fun origCir ((n218 Bool) (n212 Bool) (n213 Bool) (n177 Bool) (n85 Bool)) Bool (and n218 (not (and (and n213 n212) (and n177 n85))))) (synth-fun skel ((n218 Bool) (n212 Bool) (n213 Bool) (n177 Bool) (n85 Bool)) Bool) (declare-var n218 Bool) (declare-var n212 Bool) (declare-var n213 Bool) (declare-var n177 Bool) (declare-var n85 Bool) (constraint (= (origCir n218 n212 n213 n177 n85) (skel n218 n212 n213 n177 n85))) (check-synth)
